language Essence 1.3

letting class be function(1 --> 3, 2 --> 1, 3 --> 4, 4 --> 4, 5 --> 5, 6 --> 7, 7 --> 6, 8 --> 2)
letting deck_length be 77
letting deck_width be 69
letting length be function(1 --> 67, 2 --> 2, 3 --> 1, 4 --> 1, 5 --> 1, 6 --> 60, 7 --> 1, 8 --> 1)
letting n_classes be 7
letting n_containers be 8
letting separation be function({2, 5} --> 65, {5, 6} --> 20)
letting width be function(1 --> 17, 2 --> 23, 3 --> 23, 4 --> 22, 5 --> 7, 6 --> 44, 7 --> 36, 8 --> 16)
